sat
(:arith-gcd-calls       1
 :arith-lower           9
 :arith-make-feasible   1
 :arith-max-columns     28
 :arith-max-rows        14
 :arith-patches         1
 :arith-patches-success 1
 :arith-upper           6
 :final-checks          1
 :max-memory            19.14
 :memory                18.60
 :mk-bool-var           15
 :num-allocs            129151
 :num-checks            1
 :rlimit-count          2065
 :time                  0.01
 :total-time            0.08)
